axi_lite_formal_verification/formal/axi_lite_formal/model/design_smt2.smt2
; SMT-LIBv2 description generated by Yosys 0.66 (git sha1 7f8fdfd8d7bc08c749a2a969388d3425d4f369d5, clang++ 17.0.0 -fPIC -O3)
; yosys-smt2-module axi_lite_assertions
(declare-sort |axi_lite_assertions_s| 0)
(declare-fun |axi_lite_assertions_is| (|axi_lite_assertions_s|) Bool)
; yosys-smt2-witness {"offset": 0, "path": ["$auto$async2sync.cc:107:execute$12"], "smtname": 0, "smtoffset": 0, "type": "reg", "width": 1}
(declare-fun |axi_lite_assertions#0| (|axi_lite_assertions_s|) (_ BitVec 1)) ; $auto$async2sync.cc:107:execute$12
; yosys-smt2-register $auto$async2sync.cc:107:execute$12 1
(define-fun |axi_lite_assertions_n $auto$async2sync.cc:107:execute$12| ((state |axi_lite_assertions_s|)) Bool (= ((_ extract 0 0) (|axi_lite_assertions#0| state)) #b1))
(declare-fun |axi_lite_assertions#1| (|axi_lite_assertions_s|) Bool) ; \clk
; yosys-smt2-input clk 1
; yosys-smt2-wire clk 1
; yosys-smt2-clock clk posedge
; yosys-smt2-witness {"offset": 0, "path": ["\\clk"], "smtname": "clk", "smtoffset": 0, "type": "posedge", "width": 1}
; yosys-smt2-witness {"offset": 0, "path": ["\\clk"], "smtname": "clk", "smtoffset": 0, "type": "input", "width": 1}
(define-fun |axi_lite_assertions_n clk| ((state |axi_lite_assertions_s|)) Bool (|axi_lite_assertions#1| state))
(declare-fun |axi_lite_assertions#2| (|axi_lite_assertions_s|) Bool) ; \ready
; yosys-smt2-input ready 1
; yosys-smt2-wire ready 1
; yosys-smt2-witness {"offset": 0, "path": ["\\ready"], "smtname": "ready", "smtoffset": 0, "type": "input", "width": 1}
(define-fun |axi_lite_assertions_n ready| ((state |axi_lite_assertions_s|)) Bool (|axi_lite_assertions#2| state))
(declare-fun |axi_lite_assertions#3| (|axi_lite_assertions_s|) Bool) ; \reset
; yosys-smt2-input reset 1
; yosys-smt2-wire reset 1
; yosys-smt2-witness {"offset": 0, "path": ["\\reset"], "smtname": "reset", "smtoffset": 0, "type": "input", "width": 1}
(define-fun |axi_lite_assertions_n reset| ((state |axi_lite_assertions_s|)) Bool (|axi_lite_assertions#3| state))
(declare-fun |axi_lite_assertions#4| (|axi_lite_assertions_s|) Bool) ; \valid
; yosys-smt2-input valid 1
; yosys-smt2-wire valid 1
; yosys-smt2-witness {"offset": 0, "path": ["\\valid"], "smtname": "valid", "smtoffset": 0, "type": "input", "width": 1}
(define-fun |axi_lite_assertions_n valid| ((state |axi_lite_assertions_s|)) Bool (|axi_lite_assertions#4| state))
(define-fun |axi_lite_assertions#5| ((state |axi_lite_assertions_s|)) (_ BitVec 1) (bvnot (ite (|axi_lite_assertions#1| state) #b1 #b0))) ; $auto$rtlil.cc:3255:Not$37
; yosys-smt2-assume 0 $auto$formalff.cc:987:execute$38
(define-fun |axi_lite_assertions_u 0| ((state |axi_lite_assertions_s|)) Bool (or (= ((_ extract 0 0) (|axi_lite_assertions#5| state)) #b1) (not true))) ; $auto$formalff.cc:987:execute$38
; yosys-smt2-assert 0 _witness_.check_assert_axi_lite_assertions_sv_10_2 axi_lite_assertions.sv:10.5-10.14
(define-fun |axi_lite_assertions_a 0| ((state |axi_lite_assertions_s|)) Bool (or true (not (= ((_ extract 0 0) (|axi_lite_assertions#0| state)) #b1)))) ; _witness_.check_assert_axi_lite_assertions_sv_10_2
(define-fun |axi_lite_assertions_a| ((state |axi_lite_assertions_s|)) Bool 
  (|axi_lite_assertions_a 0| state)
)
(define-fun |axi_lite_assertions_u| ((state |axi_lite_assertions_s|)) Bool 
  (|axi_lite_assertions_u 0| state)
)
(define-fun |axi_lite_assertions_i| ((state |axi_lite_assertions_s|)) Bool 
  (= (= ((_ extract 0 0) (|axi_lite_assertions#0| state)) #b1) false) ; $auto$async2sync.cc:107:execute$12
)
(define-fun |axi_lite_assertions_h| ((state |axi_lite_assertions_s|)) Bool true)
(define-fun |axi_lite_assertions_t| ((state |axi_lite_assertions_s|) (next_state |axi_lite_assertions_s|)) Bool 
  (= #b1 (|axi_lite_assertions#0| next_state)) ; $auto$async2sync.cc:110:execute$14 $auto$async2sync.cc:107:execute$12
) ; end of module axi_lite_assertions
; yosys-smt2-module axi_lite
(declare-sort |axi_lite_s| 0)
(declare-fun |axi_lite_is| (|axi_lite_s|) Bool)
(declare-fun |axi_lite#0| (|axi_lite_s|) Bool) ; \clk
; yosys-smt2-input clk 1
; yosys-smt2-wire clk 1
; yosys-smt2-clock clk posedge
; yosys-smt2-witness {"offset": 0, "path": ["\\clk"], "smtname": "clk", "smtoffset": 0, "type": "posedge", "width": 1}
; yosys-smt2-witness {"offset": 0, "path": ["\\clk"], "smtname": "clk", "smtoffset": 0, "type": "input", "width": 1}
(define-fun |axi_lite_n clk| ((state |axi_lite_s|)) Bool (|axi_lite#0| state))
; yosys-smt2-anyinit axi_lite#1 1 axi_lite.sv:9.1-14.4
; yosys-smt2-witness {"offset": 0, "path": ["\\ready"], "smtname": 1, "smtoffset": 0, "type": "init", "width": 1}
(declare-fun |axi_lite#1| (|axi_lite_s|) (_ BitVec 1)) ; \ready
; yosys-smt2-output ready 1
; yosys-smt2-register ready 1
; yosys-smt2-wire ready 1
(define-fun |axi_lite_n ready| ((state |axi_lite_s|)) Bool (= ((_ extract 0 0) (|axi_lite#1| state)) #b1))
(declare-fun |axi_lite#2| (|axi_lite_s|) Bool) ; \reset
; yosys-smt2-input reset 1
; yosys-smt2-wire reset 1
; yosys-smt2-witness {"offset": 0, "path": ["\\reset"], "smtname": "reset", "smtoffset": 0, "type": "input", "width": 1}
(define-fun |axi_lite_n reset| ((state |axi_lite_s|)) Bool (|axi_lite#2| state))
(declare-fun |axi_lite#3| (|axi_lite_s|) Bool) ; \valid
; yosys-smt2-input valid 1
; yosys-smt2-wire valid 1
; yosys-smt2-witness {"offset": 0, "path": ["\\valid"], "smtname": "valid", "smtoffset": 0, "type": "input", "width": 1}
(define-fun |axi_lite_n valid| ((state |axi_lite_s|)) Bool (|axi_lite#3| state))
(define-fun |axi_lite#4| ((state |axi_lite_s|)) (_ BitVec 1) (bvnot (ite (|axi_lite#0| state) #b1 #b0))) ; $auto$rtlil.cc:3255:Not$34
; yosys-smt2-assume 0 $auto$formalff.cc:987:execute$35
(define-fun |axi_lite_u 0| ((state |axi_lite_s|)) Bool (or (= ((_ extract 0 0) (|axi_lite#4| state)) #b1) (not true))) ; $auto$formalff.cc:987:execute$35
(define-fun |axi_lite#5| ((state |axi_lite_s|)) (_ BitVec 1) (ite (|axi_lite#3| state) #b1 (|axi_lite#1| state))) ; $procmux$6_Y
(define-fun |axi_lite#6| ((state |axi_lite_s|)) (_ BitVec 1) (ite (|axi_lite#2| state) #b0 (|axi_lite#5| state))) ; $0\ready[0:0]
(define-fun |axi_lite_a| ((state |axi_lite_s|)) Bool true)
(define-fun |axi_lite_u| ((state |axi_lite_s|)) Bool 
  (|axi_lite_u 0| state)
)
(define-fun |axi_lite_i| ((state |axi_lite_s|)) Bool true)
(define-fun |axi_lite_h| ((state |axi_lite_s|)) Bool true)
(define-fun |axi_lite_t| ((state |axi_lite_s|) (next_state |axi_lite_s|)) Bool 
  (= (|axi_lite#6| state) (|axi_lite#1| next_state)) ; $procdff$11 \ready
) ; end of module axi_lite
; yosys-smt2-module axi_lite_formal
(declare-sort |axi_lite_formal_s| 0)
(declare-fun |axi_lite_formal_is| (|axi_lite_formal_s|) Bool)
; yosys-smt2-anyseq axi_lite_formal#0 1 $auto$setundef.cc:350:execute$27
; yosys-smt2-witness {"offset": 0, "path": ["\\clk"], "smtname": 0, "smtoffset": 0, "type": "seq", "width": 1}
(declare-fun |axi_lite_formal#0| (|axi_lite_formal_s|) (_ BitVec 1)) ; \clk
; yosys-smt2-wire clk 1
; yosys-smt2-clock clk posedge
(define-fun |axi_lite_formal_n clk| ((state |axi_lite_formal_s|)) Bool (= ((_ extract 0 0) (|axi_lite_formal#0| state)) #b1))
; yosys-smt2-cell axi_lite dut
; yosys-smt2-witness {"path": ["\\dut"], "smtname": "dut", "type": "cell"}
(declare-fun |axi_lite_formal#1| (|axi_lite_formal_s|) Bool) ; \ready
(declare-fun |axi_lite_formal_h dut| (|axi_lite_formal_s|) |axi_lite_s|)
; yosys-smt2-wire ready 1
(define-fun |axi_lite_formal_n ready| ((state |axi_lite_formal_s|)) Bool (|axi_lite_formal#1| state))
; yosys-smt2-anyseq axi_lite_formal#2 1 $auto$setundef.cc:350:execute$31
; yosys-smt2-witness {"offset": 0, "path": ["\\reset"], "smtname": 2, "smtoffset": 0, "type": "seq", "width": 1}
(declare-fun |axi_lite_formal#2| (|axi_lite_formal_s|) (_ BitVec 1)) ; \reset
; yosys-smt2-wire reset 1
(define-fun |axi_lite_formal_n reset| ((state |axi_lite_formal_s|)) Bool (= ((_ extract 0 0) (|axi_lite_formal#2| state)) #b1))
; yosys-smt2-anyseq axi_lite_formal#3 1 $auto$setundef.cc:350:execute$29
; yosys-smt2-witness {"offset": 0, "path": ["\\valid"], "smtname": 3, "smtoffset": 0, "type": "seq", "width": 1}
(declare-fun |axi_lite_formal#3| (|axi_lite_formal_s|) (_ BitVec 1)) ; \valid
; yosys-smt2-wire valid 1
(define-fun |axi_lite_formal_n valid| ((state |axi_lite_formal_s|)) Bool (= ((_ extract 0 0) (|axi_lite_formal#3| state)) #b1))
(define-fun |axi_lite_formal#4| ((state |axi_lite_formal_s|)) (_ BitVec 1) (bvnot (|axi_lite_formal#0| state))) ; $auto$rtlil.cc:3255:Not$40
; yosys-smt2-assume 0 $auto$formalff.cc:987:execute$41
(define-fun |axi_lite_formal_u 0| ((state |axi_lite_formal_s|)) Bool (or (= ((_ extract 0 0) (|axi_lite_formal#4| state)) #b1) (not true))) ; $auto$formalff.cc:987:execute$41
; yosys-smt2-cell axi_lite_assertions monitor_inst
; yosys-smt2-witness {"path": ["\\monitor_inst"], "smtname": "monitor_inst", "type": "cell"}
(declare-fun |axi_lite_formal_h monitor_inst| (|axi_lite_formal_s|) |axi_lite_assertions_s|)
(define-fun |axi_lite_formal_a| ((state |axi_lite_formal_s|)) Bool (and
  (|axi_lite_assertions_a| (|axi_lite_formal_h monitor_inst| state))
  (|axi_lite_a| (|axi_lite_formal_h dut| state))
))
(define-fun |axi_lite_formal_u| ((state |axi_lite_formal_s|)) Bool (and
  (|axi_lite_formal_u 0| state)
  (|axi_lite_assertions_u| (|axi_lite_formal_h monitor_inst| state))
  (|axi_lite_u| (|axi_lite_formal_h dut| state))
))
(define-fun |axi_lite_formal_i| ((state |axi_lite_formal_s|)) Bool (and
  (|axi_lite_assertions_i| (|axi_lite_formal_h monitor_inst| state))
  (|axi_lite_i| (|axi_lite_formal_h dut| state))
))
(define-fun |axi_lite_formal_h| ((state |axi_lite_formal_s|)) Bool (and
  (= (|axi_lite_formal_is| state) (|axi_lite_assertions_is| (|axi_lite_formal_h monitor_inst| state)))
  (= (= ((_ extract 0 0) (|axi_lite_formal#0| state)) #b1) (|axi_lite_assertions_n clk| (|axi_lite_formal_h monitor_inst| state))) ; axi_lite_assertions.clk
  (= (|axi_lite_formal#1| state) (|axi_lite_assertions_n ready| (|axi_lite_formal_h monitor_inst| state))) ; axi_lite_assertions.ready
  (= (= ((_ extract 0 0) (|axi_lite_formal#2| state)) #b1) (|axi_lite_assertions_n reset| (|axi_lite_formal_h monitor_inst| state))) ; axi_lite_assertions.reset
  (= (= ((_ extract 0 0) (|axi_lite_formal#3| state)) #b1) (|axi_lite_assertions_n valid| (|axi_lite_formal_h monitor_inst| state))) ; axi_lite_assertions.valid
  (= (|axi_lite_formal_is| state) (|axi_lite_is| (|axi_lite_formal_h dut| state)))
  (= (= ((_ extract 0 0) (|axi_lite_formal#0| state)) #b1) (|axi_lite_n clk| (|axi_lite_formal_h dut| state))) ; axi_lite.clk
  (= (|axi_lite_formal#1| state) (|axi_lite_n ready| (|axi_lite_formal_h dut| state))) ; axi_lite.ready
  (= (= ((_ extract 0 0) (|axi_lite_formal#2| state)) #b1) (|axi_lite_n reset| (|axi_lite_formal_h dut| state))) ; axi_lite.reset
  (= (= ((_ extract 0 0) (|axi_lite_formal#3| state)) #b1) (|axi_lite_n valid| (|axi_lite_formal_h dut| state))) ; axi_lite.valid
  (|axi_lite_assertions_h| (|axi_lite_formal_h monitor_inst| state))
  (|axi_lite_h| (|axi_lite_formal_h dut| state))
))
(define-fun |axi_lite_formal_t| ((state |axi_lite_formal_s|) (next_state |axi_lite_formal_s|)) Bool (and
  (|axi_lite_assertions_t| (|axi_lite_formal_h monitor_inst| state) (|axi_lite_formal_h monitor_inst| next_state))
  (|axi_lite_t| (|axi_lite_formal_h dut| state) (|axi_lite_formal_h dut| next_state))
)) ; end of module axi_lite_formal
; yosys-smt2-topmod axi_lite_formal
; end of yosys output
